(set-logic ALL)
(set-option :produce-models true)
(declare-sort BoundSet 0)
(declare-sort UnboundSet 0)
(set-option :finite-model-find true)
(declare-fun IsOpponent (BoundSet) Bool)
(declare-fun AttemptsToRefute (BoundSet BoundSet) Bool)
(declare-fun IsFallacious (BoundSet) Bool)
(declare-fun IsIncoherent (BoundSet) Bool)
(declare-fun IsIllogical (BoundSet) Bool)
(declare-fun IsStrong (BoundSet) Bool)
(assert (not (=> (exists ((a BoundSet)) (exists ((e BoundSet)) (exists ((c BoundSet)) (exists ((b BoundSet)) (exists ((d BoundSet)) (and (IsOpponent b) (and (AttemptsToRefute b a) (and (IsFallacious c) (and (IsIncoherent d) (IsIllogical e)))))))))) (exists ((a BoundSet)) (IsStrong a)))))
(check-sat)
(get-model)